p cnf 37 261
c max 20 21 22 23 24 25 26 27 28 29 30 31 32 33 34 35 36 37 0
c ind 1 2 3 4 5 6 7 8 9 10 11 12 13 14 15 16 17 18 19 0
c p weight 8 -1 0
c p weight 9 -1 0
c p weight 10 -1 0
c p weight -8 1 0
c p weight -9 1 0
c p weight -10 1 0
c p weight 11 0.70710678118654752440084436210485 0
c p weight 12 0.70710678118654752440084436210485 0
c p weight 13 0.70710678118654752440084436210485 0
c p weight -11 1 0
c p weight -12 1 0
c p weight -13 1 0
c p complex 14 0.70710678118654752440084436210485 0.70710678118654752440084436210485 0
c p complex 15 0.70710678118654752440084436210485 0.70710678118654752440084436210485 0
c p complex 16 0.70710678118654752440084436210485 0.70710678118654752440084436210485 0
c p complex -14 1 0 0
c p complex -15 1 0 0
c p complex -16 1 0 0
c p complex 17 0.70710678118654752440084436210485 -0.70710678118654752440084436210485 0
c p complex 18 0.70710678118654752440084436210485 -0.70710678118654752440084436210485 0
c p complex 19 0.70710678118654752440084436210485 -0.70710678118654752440084436210485 0
c p complex -17 1 0 0
c p complex -18 1 0 0
c p complex -19 1 0 0
4 2 -3 0
4 1 -3 0
-4 2 3 0
-4 1 3 0
4 -2 -1 3 0
-4 -2 -1 -3 0
5 -20 -1 0
-5 -20 1 0
-8 -20 0
-11 -20 0
-17 -20 0
-14 -20 0
-8 5 -23 0
-8 -23 1 0
8 -5 -23 -1 0
11 -23 0
-17 -23 0
-14 -23 0
5 -29 -1 0
5 -26 -1 0
-5 -29 1 0
-5 -26 1 0
-8 -29 0
-8 -26 0
-11 -29 0
-11 -26 0
-17 -26 0
-14 -29 0
17 -29 -1 0
14 -26 -1 0
-17 -29 1 0
-14 -26 1 0
5 -32 -1 0
-5 -32 1 0
6 -32 1 -2 0
6 -32 -1 2 0
-6 -32 1 2 0
-6 -32 -1 -2 0
-8 -32 0
-9 -32 0
-11 -32 0
-12 -32 0
-17 -32 0
-14 -32 0
-18 -32 0
-15 -32 0
5 -33 -1 0
-5 -33 1 0
7 -33 1 -4 0
7 -33 -1 4 0
-7 -33 1 4 0
-7 -33 -1 -4 0
-8 -33 0
-10 -33 0
-11 -33 0
-13 -33 0
-17 -33 0
-14 -33 0
-19 -33 0
-16 -33 0
20 23 26 29 32 33 34 36 0
-20 -23 0
-20 -26 0
-20 -29 0
-20 -32 0
-20 -33 0
-20 -34 0
-20 -36 0
-23 -26 0
-23 -29 0
-23 -32 0
-23 -33 0
-23 -34 0
-23 -36 0
-26 -29 0
-26 -32 0
-26 -33 0
-26 -34 0
-26 -36 0
-29 -32 0
-29 -33 0
-29 -34 0
-29 -36 0
-32 -33 0
-32 -34 0
-32 -36 0
-33 -34 0
-33 -36 0
-34 -36 0
6 -21 -2 0
-6 -21 2 0
-9 -21 0
-12 -21 0
-18 -21 0
-15 -21 0
-9 6 -24 0
-9 -24 2 0
9 -6 -24 -2 0
12 -24 0
-18 -24 0
-15 -24 0
6 -30 -2 0
6 -27 -2 0
-6 -30 2 0
-6 -27 2 0
-9 -30 0
-9 -27 0
-12 -30 0
-12 -27 0
-18 -27 0
-15 -30 0
18 -30 -2 0
15 -27 -2 0
-18 -30 2 0
-15 -27 2 0
6 -34 -2 0
-6 -34 2 0
5 -34 2 -1 0
5 -34 -2 1 0
-5 -34 2 1 0
-5 -34 -2 -1 0
-9 -34 0
-8 -34 0
-12 -34 0
-11 -34 0
-18 -34 0
-15 -34 0
-17 -34 0
-14 -34 0
6 -35 -2 0
-6 -35 2 0
7 -35 2 -4 0
7 -35 -2 4 0
-7 -35 2 4 0
-7 -35 -2 -4 0
-9 -35 0
-10 -35 0
-12 -35 0
-13 -35 0
-18 -35 0
-15 -35 0
-19 -35 0
-16 -35 0
21 24 27 30 34 35 32 37 0
-21 -24 0
-21 -27 0
-21 -30 0
-21 -34 0
-21 -35 0
-21 -32 0
-21 -37 0
-24 -27 0
-24 -30 0
-24 -34 0
-24 -35 0
-24 -32 0
-24 -37 0
-27 -30 0
-27 -34 0
-27 -35 0
-27 -32 0
-27 -37 0
-30 -34 0
-30 -35 0
-30 -32 0
-30 -37 0
-34 -35 0
-34 -32 0
-34 -37 0
-35 -32 0
-35 -37 0
-32 -37 0
7 -22 -4 0
-7 -22 4 0
-10 -22 0
-13 -22 0
-19 -22 0
-16 -22 0
-10 7 -25 0
-10 -25 4 0
10 -7 -25 -4 0
13 -25 0
-19 -25 0
-16 -25 0
7 -31 -4 0
7 -28 -4 0
-7 -31 4 0
-7 -28 4 0
-10 -31 0
-10 -28 0
-13 -31 0
-13 -28 0
-19 -28 0
-16 -31 0
19 -31 -4 0
16 -28 -4 0
-19 -31 4 0
-16 -28 4 0
7 -36 -4 0
-7 -36 4 0
5 -36 4 -1 0
5 -36 -4 1 0
-5 -36 4 1 0
-5 -36 -4 -1 0
-10 -36 0
-8 -36 0
-13 -36 0
-11 -36 0
-19 -36 0
-16 -36 0
-17 -36 0
-14 -36 0
7 -37 -4 0
-7 -37 4 0
6 -37 4 -2 0
6 -37 -4 2 0
-6 -37 4 2 0
-6 -37 -4 -2 0
-10 -37 0
-9 -37 0
-13 -37 0
-12 -37 0
-19 -37 0
-16 -37 0
-18 -37 0
-15 -37 0
22 25 28 31 36 37 33 35 0
-22 -25 0
-22 -28 0
-22 -31 0
-22 -36 0
-22 -37 0
-22 -33 0
-22 -35 0
-25 -28 0
-25 -31 0
-25 -36 0
-25 -37 0
-25 -33 0
-25 -35 0
-28 -31 0
-28 -36 0
-28 -37 0
-28 -33 0
-28 -35 0
-31 -36 0
-31 -37 0
-31 -33 0
-31 -35 0
-36 -37 0
-36 -33 0
-36 -35 0
-37 -33 0
-37 -35 0
-33 -35 0
5 -1 0
-5 1 0
6 -2 0
-6 2 0
7 -3 0
-7 3 0
